N = 4;
Capacity = 20;
nbVehicles = 4;
maxVisitsPerCustomer = 2;
Demand = [7, 37, 11, 11];
Distance = [|
  0, 48, 13, 7, 31
| 48, 0, 61, 55, 17
| 13, 61, 0, 6, 44
| 7, 55, 6, 0, 38
| 31, 17, 44, 38, 0
|];
